100
1000
240
240
240
239
238
236
236
235
234
233
231
230
229
229
228
228
227
227
224
224
224
223
222
221
219
219
219
219
217
217
216
216
215
214
214
214
214
212
212
211
210
209
209
209
208
208
207
207
207
206
206
206
205
205
205
205
204
202
202
198
197
197
195
195
195
194
193
192
189
185
185
185
182
181
180
179
178
175
175
175
175
172
171
170
169
168
168
168
167
167
167
167
167
166
166
165
164
164
163
162
